NAME : amz0063.107495_107495.tour
COMMENT : Cost = 107495_107495
COMMENT : Found by LKH-AMZ [Keld Helsgaun] Sun May 11 14:23:56 2025
COMMENT : TW viol.: 0 #: 0
TYPE : TOUR
DIMENSION : 107
TOUR_SECTION
65
26
76
61
29
9
43
67
100
28
72
92
94
83
39
13
102
22
98
12
49
60
20
75
53
31
96
18
85
106
81
7
32
51
10
30
38
63
84
15
97
105
50
21
71
69
6
58
5
99
25
17
52
42
95
14
70
34
44
64
66
3
45
16
74
40
54
107
47
68
86
55
90
93
24
4
48
87
80
36
56
35
79
37
62
82
91
1
23
59
104
89
57
11
77
88
73
41
19
103
27
78
101
33
46
2
8
-1
EOF
